# Initialization -------------------------------------------------------------

include       "config/01-initialize.lammps"

# System definition ----------------------------------------------------------

lattice       fcc 1
region        domain block  -23  23  -5  5  -5  5
create_box    5 domain

region        piston_left   block  -21.00  -20.00  INF  INF  INF  INF
region        fluid_left    block  -18.00   -2.00  INF  INF  INF  INF
region        membrane      block   -0.25    0.25  INF  INF  INF  INF
region        fluid_right   block    2.00   18.00  INF  INF  INF  INF
region        piston_right  block   20.00   21.00  INF  INF  INF  INF

# Add atoms to what will be solid.
create_atoms  1 region piston_left
create_atoms  2 region membrane
create_atoms  3 region piston_right

# Add atoms to what will be fluid.
create_atoms  4 random 1000 654514  fluid_left
create_atoms  4 random 550  654514  fluid_right
create_atoms  5 random 50   424514  fluid_right

# Simulation settings --------------------------------------------------------

mass          * 1.0

# Pair-wise coefficients.
pair_coeff    1*3  1*3  1.0  1.0 
pair_coeff    4    4    1.0  1.0
pair_coeff    5    5    2.0  3.0

# Impose asymmetric coefficients for walls and solvent/solute.
pair_coeff    1*3  4    0.8  1.0
pair_coeff    1*3  5    0.1  3.0

dump          state_minimized all atom 1 &
              "dumps/step-1-dynamics.lammpstrj"

# Run simulation -------------------------------------------------------------

thermo        10
minimize      1.0e-04  1.0e-06  1000  10000
write_data    "dumps/step-1-restart.min.lammps" pair ij
