# Initialization --------------------------------------------------

include            "config/01-initialize.lammps"

# System definition -----------------------------------------------

pair_style         hybrid/overlay vashishta lj/cut/tip4p/long 3 4 1 1 0.1546 10
kspace_style       pppm/tip4p 1.0e-4
bond_style         harmonic
angle_style        harmonic

read_data          "dumps/step-2-dilated-SiO.lammps"

molecule           h2omol "config/TIP4P2005.txt"
create_atoms       0 single 15.0 10.0 10.0 mol h2omol 45585

group              SiO type 1 2
group              H2O type 3 4

# Simulation settings ---------------------------------------------

pair_coeff         * * vashishta "config/SiO.1990.vashishta" Si O NULL NULL
pair_coeff         * * lj/cut/tip4p/long 0 0
pair_coeff         1 3 lj/cut/tip4p/long 0.0057 4.42
pair_coeff         2 3 lj/cut/tip4p/long 0.0043 3.12
pair_coeff         3 3 lj/cut/tip4p/long 0.008 3.1589
pair_coeff         4 4 lj/cut/tip4p/long 0.0 0.0

bond_coeff         1 0 0.9572
angle_coeff        1 0 104.52

variable           oxygen atom "type==3"
group              oxygen dynamic all var oxygen
variable           nO equal count(oxygen)

fix                myat1 all ave/time 100 10 1000 v_nO &
                     file "dumps/step-3-no-molecule.dat"
fix                shak H2O shake 1.0e-04 200 0 b 1 a 1 mol h2omol

dump               dmp all atom 2000 &
                   "dumps/step-3-dynamics.lammpstrj"

# Run -------------------------------------------------------------

compute_modify     thermo_temp dynamic yes

compute            ctH2O H2O temp
compute_modify     ctH2O dynamic yes
fix                mynvt1 H2O nvt temp 300 300 0.1
fix_modify         mynvt1 temp ctH2O

compute            ctSiO SiO temp
fix                mynvt2 SiO nvt temp 300 300 0.1
fix_modify         mynvt2 temp ctSiO

timestep           0.001
thermo             1000
run                5000

variable           tfac equal 5.0/3.0
fix                fgcmc H2O gcmc 100 100 0 0 65899 300 -0.5 0.1 &
                     mol h2omol tfac_insert ${tfac} group H2O    &
                     shake shak full_energy
run                250000

write_data         "dumps/step-3-with-water-SiO.lammps"
