# Set the mass for all atoms of one or more atom types.
mass         1  1.0
mass         2  1.0

# Specify the pairwise force field coefficients.
pair_coeff   1  1  1.0  1.0
pair_coeff   2  2  0.5  3.0

# Rebuild the neighbor lists more often.
neigh_modify every 1 delay 5 check yes
