units         real
atom_style    full

bond_style    harmonic
angle_style   harmonic

pair_style    lj/cut/tip4p/long 1 2 1 1 0.1546 12.0
kspace_style  pppm/tip4p 1.0e-04
