units              metal
boundary           p p p
atom_style         full
neighbor           1.0 bin
neigh_modify       delay 1
