# Parametrization -------------------------------------------------

variable           T equal 300

# Initialization --------------------------------------------------

units              metal
atom_style         full
boundary           p p p
pair_style         airebo 2.5 1 1

# System definition -----------------------------------------------

read_data          "config/nanotube.lammps"
pair_coeff         * * "config/CH.airebo" C

# Simulation settings ---------------------------------------------

group              gcar type 1
variable           zmax equal bound(gcar,zmax)-0.5
variable           zmin equal bound(gcar,zmin)+0.5

region             rtop block INF INF INF INF ${zmax} INF
region             rmid block INF INF INF INF ${zmin} ${zmax}
region             rbot block INF INF INF INF INF     ${zmin}

group              gtop region rtop
group              gbot region rbot
group              gmid region rmid

velocity           gmid create ${T} 48455 mom yes rot yes
fix                mynve all nve

compute            Tmid gmid temp
fix                myber gmid temp/berendsen ${T} ${T} 0.1
fix_modify         myber temp Tmid

fix                mysf1 gtop setforce NULL NULL 0
fix                mysf2 gbot setforce NULL NULL 0
velocity           gtop set NULL NULL 0
velocity           gbot set NULL NULL 0

variable           pos equal xcm(gtop,z)
fix                at1 all ave/time 10 100 1000 &
                     v_pos                      &
                     file "dumps/step-2-deflection.dat"
fix                at2 all ave/time 10 100 1000 &
                     f_mysf1[1] f_mysf2[1]      &
                     file "dumps/step-2-force.dat"
dump               mydmp all atom 1000 &
                     "dumps/step-2-dynamics.lammpstrj"

thermo             100
thermo_modify      temp Tmid

# # Run simulation --------------------------------------------------

timestep           5.0e-04
run                5000

# 0.05 A/ps = 10 m/s
velocity           gtop set NULL NULL 0.05
run                150000
